NAME : mEgtspf.pid11480.gtsp.161061402.tour
COMMENT : Length = 161061402
COMMENT : Found by LKH [Keld Helsgaun] Wed Mar 19 21:11:26 2025
TYPE : TOUR
DIMENSION : 90
TOUR_SECTION
1
5
68
69
70
67
9
31
32
33
34
80
81
82
79
65
66
63
64
6
2
8
87
88
89
90
14
11
12
13
37
38
35
36
42
39
40
41
51
52
53
54
59
60
61
62
74
71
72
73
29
30
27
28
20
21
22
19
10
4
57
58
55
56
46
43
44
45
50
47
48
49
7
25
26
23
24
85
86
83
84
18
15
16
17
3
76
77
78
75
-1
EOF
